1
2
3
4
5
6
7
8
9
10
11
12
13
14
15
16
17
18
19
20
21
22
23
24
25
146
147
148
149
150
50
49
48
47
46
45
44
43
42
41
40
39
38
37
36
35
34
33
32
31
30
29
28
27
26
130
129
128
127
126
131
132
133
134
135
156
157
158
159
160
57
56
55
54
53
52
51
155
154
153
152
151
176
177
178
179
180
76
77
78
79
80
81
82
83
84
85
86
87
88
89
90
91
92
93
94
95
96
97
98
99
100
200
199
198
197
196
75
74
73
72
71
70
69
68
67
66
65
64
63
62
61
60
59
58
181
182
183
184
185
206
207
208
209
210
107
106
105
104
103
102
101
205
204
203
202
201
108
109
110
111
112
113
114
115
116
117
118
119
120
121
122
123
124
125
225
224
223
222
221
216
217
218
219
220
195
194
193
192
191
170
169
168
167
166
145
144
143
142
141
136
137
138
139
140
161
162
163
164
165
186
187
188
189
190
211
212
213
214
215
175
174
173
172
171
1
